(declare-fun temp545_1 () (_ BitVec 64))
(declare-fun var136368 () (_ BitVec 64))
(declare-fun var136362 () (_ BitVec 64))
(declare-fun temp545_2 () (_ BitVec 64))
(declare-fun var70098 () (_ BitVec 64))
(declare-fun k!0 () Bool)
(declare-fun ARGNAME_params_NAMEEND_DIM () (_ BitVec 64))
(declare-fun temp545_3 () (_ BitVec 64))
(declare-fun var70215 () (_ BitVec 64))
(declare-fun temp545_4 () (_ BitVec 64))
(declare-fun var70355 () (_ BitVec 64))
(declare-fun temp545_5 () (_ BitVec 64))
(declare-fun ARGNAME_params_NAMEEND_DIMSIZE
             ()
             (Array (_ BitVec 64) (_ BitVec 64)))
(declare-fun temp545_6 () (_ BitVec 64))
(declare-fun temp545_7 () (_ BitVec 64))
(declare-fun temp545_8 () (_ BitVec 64))
(declare-fun temp545_9 () (_ BitVec 64))
(declare-fun temp545_10 () (_ BitVec 64))
(declare-fun temp545_11 () (_ BitVec 64))
(declare-fun temp545_12 () (_ BitVec 64))
(declare-fun temp545_13 () (_ BitVec 64))
(declare-fun temp545_14 () (_ BitVec 64))
(declare-fun temp545_15 () (_ BitVec 64))
(declare-fun temp545_16 () (_ BitVec 64))
(declare-fun temp545_17 () (_ BitVec 64))
(declare-fun var70357 () (_ BitVec 64))
(declare-fun temp545_18 () (_ BitVec 64))
(declare-fun ARGNAME_indices_NAMEEND_DIMSIZE
             ()
             (Array (_ BitVec 64) (_ BitVec 64)))
(declare-fun temp545_19 () (_ BitVec 64))
(declare-fun temp545_20 () (_ BitVec 64))
(declare-fun temp545_21 () (_ BitVec 64))
(declare-fun temp545_22 () (_ BitVec 64))
(declare-fun temp545_23 () (_ BitVec 64))
(declare-fun temp545_24 () (_ BitVec 64))
(declare-fun temp545_25 () (_ BitVec 64))
(declare-fun temp545_26 () (_ BitVec 64))
(declare-fun temp545_27 () (_ BitVec 64))
(declare-fun temp545_28 () (_ BitVec 64))
(declare-fun temp545_29 () (_ BitVec 64))
(declare-fun temp545_30 () (_ BitVec 64))
(declare-fun var70360 () (_ BitVec 64))
(declare-fun var70361 () (_ BitVec 64))
(declare-fun temp545_32 () (_ BitVec 64))
(declare-fun var70356 () (_ BitVec 64))
(declare-fun temp545_33 () (_ BitVec 64))
(declare-fun var465083 () (_ BitVec 64))
(declare-fun var70396 () (_ BitVec 64))
(declare-fun temp545_34 () (_ BitVec 64))
(declare-fun var70461 () (_ BitVec 64))
(declare-fun temp545_35 () (_ BitVec 64))
(declare-fun ARGNAME_indices_NAMEEND_NUMELEMENT () (_ BitVec 64))
(declare-fun var70553 () (_ BitVec 64))
(assert (= temp545_1 #x0000000000000000))
(assert (= var136368
   (ite (bvsgt ARGNAME_params_NAMEEND_DIM temp545_1)
        #x0000000000000001
        #x0000000000000000)))
(assert (= var136362 var136368))
(assert (= var70098 var136362))
(assert (= temp545_2 #x0000000000000001))
(assert (= var70098 temp545_2))
(assert (= temp545_3 #x0000000000000000))
(assert (= var70215 temp545_3))
(assert (= temp545_4 #x0000000000000000))
(assert (= var70355 temp545_4))
(assert (= temp545_5 #x0000000000000000))
(assert (= temp545_6 (select ARGNAME_params_NAMEEND_DIMSIZE temp545_5)))
(assert (= temp545_7 #x0000000000000001))
(assert (= temp545_8 (select ARGNAME_params_NAMEEND_DIMSIZE temp545_7)))
(assert (= temp545_9 #x0000000000000002))
(assert (= temp545_10 (select ARGNAME_params_NAMEEND_DIMSIZE temp545_9)))
(assert (= temp545_11 #x0000000000000003))
(assert (= temp545_12 (select ARGNAME_params_NAMEEND_DIMSIZE temp545_11)))
(assert (= temp545_13 #x0000000000000004))
(assert (= temp545_14 (select ARGNAME_params_NAMEEND_DIMSIZE temp545_13)))
(assert (= temp545_15 #x0000000000000005))
(assert (= temp545_16 (select ARGNAME_params_NAMEEND_DIMSIZE temp545_15)))
(assert (= temp545_17 (select ARGNAME_params_NAMEEND_DIMSIZE var70355)))
(assert (= var70357 temp545_17))
(assert (= temp545_18 #x0000000000000000))
(assert (= temp545_19 (select ARGNAME_indices_NAMEEND_DIMSIZE temp545_18)))
(assert (= temp545_20 #x0000000000000001))
(assert (= temp545_21 (select ARGNAME_indices_NAMEEND_DIMSIZE temp545_20)))
(assert (= temp545_22 #x0000000000000002))
(assert (= temp545_23 (select ARGNAME_indices_NAMEEND_DIMSIZE temp545_22)))
(assert (= temp545_24 #x0000000000000003))
(assert (= temp545_25 (select ARGNAME_indices_NAMEEND_DIMSIZE temp545_24)))
(assert (= temp545_26 #x0000000000000004))
(assert (= temp545_27 (select ARGNAME_indices_NAMEEND_DIMSIZE temp545_26)))
(assert (= temp545_28 #x0000000000000005))
(assert (= temp545_29 (select ARGNAME_indices_NAMEEND_DIMSIZE temp545_28)))
(assert (= temp545_30 (select ARGNAME_indices_NAMEEND_DIMSIZE var70355)))
(assert (= var70360 temp545_30))
(assert (= var70361 (ite (= var70357 var70360) #x0000000000000001 #x0000000000000000)))
(assert (= temp545_32 #x0000000000000001))
(assert (= var70356 (bvadd var70355 temp545_32)))
(assert (= temp545_33 #xffffffffffffffff))
(assert (= var465083 temp545_33))
(assert (= var70396 var465083))
(assert (= temp545_34 #x0000000000000001))
(assert (= var70461 temp545_34))
(assert (= temp545_35 #x0000000000000000))
(assert (= var70553
   (ite (= ARGNAME_indices_NAMEEND_NUMELEMENT temp545_35)
        #x0000000000000001
        #x0000000000000000)))
(model-add temp545_1 () (_ BitVec 64) #x0000000000000000)
(model-add var136368 () (_ BitVec 64) #x0000000000000001)
(model-add var136362 () (_ BitVec 64) #x0000000000000001)
(model-add temp545_2 () (_ BitVec 64) #x0000000000000001)
(model-add var70098 () (_ BitVec 64) #x0000000000000001)
(model-del k!0)
(model-add ARGNAME_params_NAMEEND_DIM
           ()
           (_ BitVec 64)
           (ite (or k!0 (= #x0000000000000000 #x7fffffffffffffff))
                #x0000000000000000
                (bvadd #x0000000000000000 #x0000000000000001)))









